p cnf 1375
-22 -428
-23 -431
-24 -434
-25 -437
-26 -440
-27 -443
-28 -446
-29 -449
-30 -452
-31 -455
-32 -458
-33 -461
-34 -464
-35 -467
-36 -470
-37 -473
-38 -476
-39 -479
-40 -482
-41 -485
-42 -488
-43 489
-44 490
-45 491
-46 492
-47 493
-48 494
-49 495
-50 496
-51 497
-52 -23
-52 -24
23 24 52
-53 -25
-53 -26
25 26 53
-54 -27
-54 -28
27 28 54
-55 -29
-55 -30
29 30 55
-56 -31
-56 -32
31 32 56
-57 -33
-57 -34
33 34 57
-58 -35
-58 -36
35 36 58
-59 -37
-59 -38
37 38 59
-60 -39
-60 -40
39 40 60
-61 -41
-61 -42
41 42 61
-62 -43
-62 -44
43 44 62
-63 -45
-63 -46
45 46 63
-64 -47
-64 -48
47 48 64
-65 -49
-65 -50
49 50 65
-66 52
-66 53
-52 -53 66
-67 54
-67 55
-54 -55 67
-68 56
-68 57
-56 -57 68
-69 58
-69 59
-58 -59 69
-70 60
-70 61
-60 -61 70
-71 62
-71 63
-62 -63 71
-72 64
-72 65
-64 -65 72
-73 66
-73 67
-66 -67 73
-74 68
-74 69
-68 -69 74
-75 70
-75 71
-70 -71 75
-76 -51
-76 72
51 -72 76
-77 73
-77 74
-73 -74 77
-78 75
-78 76
-75 -76 78
-79 77
-79 78
-77 -78 79
-80 -22
-80 23
22 -23 80
-81 22
-81 -23
-22 23 81
-82 -80
-82 -81
80 81 82
-83 22
-83 23
-22 -23 83
-84 -22
-84 -82
22 82 84
-85 22
-85 82
-22 -82 85
-86 -84
-86 -85
84 85 86
-87 22
-87 -82
-22 82 87
-88 -83
-88 -87
83 87 88
-89 -23
-89 24
23 -24 89
-90 23
-90 -24
-23 24 90
-91 -89
-91 -90
89 90 91
-92 23
-92 24
-23 -24 92
-93 88
-93 -91
-88 91 93
-94 -88
-94 91
88 -91 94
-95 -93
-95 -94
93 94 95
-96 -88
-96 -91
88 91 96
-97 -92
-97 -96
92 96 97
-98 -24
-98 25
24 -25 98
-99 24
-99 -25
-24 25 99
-100 -98
-100 -99
98 99 100
-101 24
-101 25
-24 -25 101
-102 97
-102 -100
-97 100 102
-103 -97
-103 100
97 -100 103
-104 -102
-104 -103
102 103 104
-105 -97
-105 -100
97 100 105
-106 -101
-106 -105
101 105 106
-107 -25
-107 26
25 -26 107
-108 25
-108 -26
-25 26 108
-109 -107
-109 -108
107 108 109
-110 25
-110 26
-25 -26 110
-111 106
-111 -109
-106 109 111
-112 -106
-112 109
106 -109 112
-113 -111
-113 -112
111 112 113
-114 -106
-114 -109
106 109 114
-115 -110
-115 -114
110 114 115
-116 -26
-116 27
26 -27 116
-117 26
-117 -27
-26 27 117
-118 -116
-118 -117
116 117 118
-119 26
-119 27
-26 -27 119
-120 115
-120 -118
-115 118 120
-121 -115
-121 118
115 -118 121
-122 -120
-122 -121
120 121 122
-123 -115
-123 -118
115 118 123
-124 -119
-124 -123
119 123 124
-125 -27
-125 28
27 -28 125
-126 27
-126 -28
-27 28 126
-127 -125
-127 -126
125 126 127
-128 27
-128 28
-27 -28 128
-129 124
-129 -127
-124 127 129
-130 -124
-130 127
124 -127 130
-131 -129
-131 -130
129 130 131
-132 -124
-132 -127
124 127 132
-133 -128
-133 -132
128 132 133
-134 -28
-134 29
28 -29 134
-135 28
-135 -29
-28 29 135
-136 -134
-136 -135
134 135 136
-137 28
-137 29
-28 -29 137
-138 133
-138 -136
-133 136 138
-139 -133
-139 136
133 -136 139
-140 -138
-140 -139
138 139 140
-141 -133
-141 -136
133 136 141
-142 -137
-142 -141
137 141 142
-143 -29
-143 30
29 -30 143
-144 29
-144 -30
-29 30 144
-145 -143
-145 -144
143 144 145
-146 29
-146 30
-29 -30 146
-147 142
-147 -145
-142 145 147
-148 -142
-148 145
142 -145 148
-149 -147
-149 -148
147 148 149
-150 -142
-150 -145
142 145 150
-151 -146
-151 -150
146 150 151
-152 -30
-152 31
30 -31 152
-153 30
-153 -31
-30 31 153
-154 -152
-154 -153
152 153 154
-155 30
-155 31
-30 -31 155
-156 151
-156 -154
-151 154 156
-157 -151
-157 154
151 -154 157
-158 -156
-158 -157
156 157 158
-159 -151
-159 -154
151 154 159
-160 -155
-160 -159
155 159 160
-161 -31
-161 32
31 -32 161
-162 31
-162 -32
-31 32 162
-163 -161
-163 -162
161 162 163
-164 31
-164 32
-31 -32 164
-165 160
-165 -163
-160 163 165
-166 -160
-166 163
160 -163 166
-167 -165
-167 -166
165 166 167
-168 -160
-168 -163
160 163 168
-169 -164
-169 -168
164 168 169
-170 -32
-170 33
32 -33 170
-171 32
-171 -33
-32 33 171
-172 -170
-172 -171
170 171 172
-173 32
-173 33
-32 -33 173
-174 169
-174 -172
-169 172 174
-175 -169
-175 172
169 -172 175
-176 -174
-176 -175
174 175 176
-177 -169
-177 -172
169 172 177
-178 -173
-178 -177
173 177 178
-179 -33
-179 34
33 -34 179
-180 33
-180 -34
-33 34 180
-181 -179
-181 -180
179 180 181
-182 33
-182 34
-33 -34 182
-183 178
-183 -181
-178 181 183
-184 -178
-184 181
178 -181 184
-185 -183
-185 -184
183 184 185
-186 -178
-186 -181
178 181 186
-187 -182
-187 -186
182 186 187
-188 -34
-188 35
34 -35 188
-189 34
-189 -35
-34 35 189
-190 -188
-190 -189
188 189 190
-191 34
-191 35
-34 -35 191
-192 187
-192 -190
-187 190 192
-193 -187
-193 190
187 -190 193
-194 -192
-194 -193
192 193 194
-195 -187
-195 -190
187 190 195
-196 -191
-196 -195
191 195 196
-197 -35
-197 36
35 -36 197
-198 35
-198 -36
-35 36 198
-199 -197
-199 -198
197 198 199
-200 35
-200 36
-35 -36 200
-201 196
-201 -199
-196 199 201
-202 -196
-202 199
196 -199 202
-203 -201
-203 -202
201 202 203
-204 -196
-204 -199
196 199 204
-205 -200
-205 -204
200 204 205
-206 -36
-206 37
36 -37 206
-207 36
-207 -37
-36 37 207
-208 -206
-208 -207
206 207 208
-209 36
-209 37
-36 -37 209
-210 205
-210 -208
-205 208 210
-211 -205
-211 208
205 -208 211
-212 -210
-212 -211
210 211 212
-213 -205
-213 -208
205 208 213
-214 -209
-214 -213
209 213 214
-215 -37
-215 38
37 -38 215
-216 37
-216 -38
-37 38 216
-217 -215
-217 -216
215 216 217
-218 37
-218 38
-37 -38 218
-219 214
-219 -217
-214 217 219
-220 -214
-220 217
214 -217 220
-221 -219
-221 -220
219 220 221
-222 -214
-222 -217
214 217 222
-223 -218
-223 -222
218 222 223
-224 -38
-224 39
38 -39 224
-225 38
-225 -39
-38 39 225
-226 -224
-226 -225
224 225 226
-227 38
-227 39
-38 -39 227
-228 223
-228 -226
-223 226 228
-229 -223
-229 226
223 -226 229
-230 -228
-230 -229
228 229 230
-231 -223
-231 -226
223 226 231
-232 -227
-232 -231
227 231 232
-233 -39
-233 40
39 -40 233
-234 39
-234 -40
-39 40 234
-235 -233
-235 -234
233 234 235
-236 39
-236 40
-39 -40 236
-237 232
-237 -235
-232 235 237
-238 -232
-238 235
232 -235 238
-239 -237
-239 -238
237 238 239
-240 -232
-240 -235
232 235 240
-241 -236
-241 -240
236 240 241
-242 -40
-242 41
40 -41 242
-243 40
-243 -41
-40 41 243
-244 -242
-244 -243
242 243 244
-245 40
-245 41
-40 -41 245
-246 241
-246 -244
-241 244 246
-247 -241
-247 244
241 -244 247
-248 -246
-248 -247
246 247 248
-249 -241
-249 -244
241 244 249
-250 -245
-250 -249
245 249 250
-251 -41
-251 42
41 -42 251
-252 41
-252 -42
-41 42 252
-253 -251
-253 -252
251 252 253
-254 41
-254 42
-41 -42 254
-255 250
-255 -253
-250 253 255
-256 -250
-256 253
250 -253 256
-257 -255
-257 -256
255 256 257
-258 -250
-258 -253
250 253 258
-259 -254
-259 -258
254 258 259
-260 -42
-260 43
42 -43 260
-261 42
-261 -43
-42 43 261
-262 -260
-262 -261
260 261 262
-263 42
-263 43
-42 -43 263
-264 259
-264 -262
-259 262 264
-265 -259
-265 262
259 -262 265
-266 -264
-266 -265
264 265 266
-267 -259
-267 -262
259 262 267
-268 -263
-268 -267
263 267 268
-269 -43
-269 44
43 -44 269
-270 43
-270 -44
-43 44 270
-271 -269
-271 -270
269 270 271
-272 43
-272 44
-43 -44 272
-273 268
-273 -271
-268 271 273
-274 -268
-274 271
268 -271 274
-275 -273
-275 -274
273 274 275
-276 -268
-276 -271
268 271 276
-277 -272
-277 -276
272 276 277
-278 -44
-278 45
44 -45 278
-279 44
-279 -45
-44 45 279
-280 -278
-280 -279
278 279 280
-281 44
-281 45
-44 -45 281
-282 277
-282 -280
-277 280 282
-283 -277
-283 280
277 -280 283
-284 -282
-284 -283
282 283 284
-285 -277
-285 -280
277 280 285
-286 -281
-286 -285
281 285 286
-287 -45
-287 46
45 -46 287
-288 45
-288 -46
-45 46 288
-289 -287
-289 -288
287 288 289
-290 45
-290 46
-45 -46 290
-291 286
-291 -289
-286 289 291
-292 -286
-292 289
286 -289 292
-293 -291
-293 -292
291 292 293
-294 -286
-294 -289
286 289 294
-295 -290
-295 -294
290 294 295
-296 -46
-296 47
46 -47 296
-297 46
-297 -47
-46 47 297
-298 -296
-298 -297
296 297 298
-299 46
-299 47
-46 -47 299
-300 295
-300 -298
-295 298 300
-301 -295
-301 298
295 -298 301
-302 -300
-302 -301
300 301 302
-303 -295
-303 -298
295 298 303
-304 -299
-304 -303
299 303 304
-305 -47
-305 48
47 -48 305
-306 47
-306 -48
-47 48 306
-307 -305
-307 -306
305 306 307
-308 47
-308 48
-47 -48 308
-309 304
-309 -307
-304 307 309
-310 -304
-310 307
304 -307 310
-311 -309
-311 -310
309 310 311
-312 -304
-312 -307
304 307 312
-313 -308
-313 -312
308 312 313
-314 -48
-314 49
48 -49 314
-315 48
-315 -49
-48 49 315
-316 -314
-316 -315
314 315 316
-317 48
-317 49
-48 -49 317
-318 313
-318 -316
-313 316 318
-319 -313
-319 316
313 -316 319
-320 -318
-320 -319
318 319 320
-321 -313
-321 -316
313 316 321
-322 -317
-322 -321
317 321 322
-323 -49
-323 50
49 -50 323
-324 49
-324 -50
-49 50 324
-325 -323
-325 -324
323 324 325
-326 49
-326 50
-49 -50 326
-327 322
-327 -325
-322 325 327
-328 -322
-328 325
322 -325 328
-329 -327
-329 -328
327 328 329
-330 -322
-330 -325
322 325 330
-331 -326
-331 -330
326 330 331
-332 -50
-332 51
50 -51 332
-333 50
-333 -51
-50 51 333
-334 -332
-334 -333
332 333 334
-335 50
-335 51
-50 -51 335
-336 331
-336 -334
-331 334 336
-337 -331
-337 334
331 -334 337
-338 -336
-338 -337
336 337 338
-339 -331
-339 -334
331 334 339
-340 -335
-340 -339
335 339 340
-341 22
-341 -86
-22 86 341
-342 -22
-342 24
22 -24 342
-343 -341
-343 -342
341 342 343
-344 22
-344 -95
-22 95 344
-345 -22
-345 25
22 -25 345
-346 -344
-346 -345
344 345 346
-347 22
-347 -104
-22 104 347
-348 -22
-348 26
22 -26 348
-349 -347
-349 -348
347 348 349
-350 22
-350 -113
-22 113 350
-351 -22
-351 27
22 -27 351
-352 -350
-352 -351
350 351 352
-353 22
-353 -122
-22 122 353
-354 -22
-354 28
22 -28 354
-355 -353
-355 -354
353 354 355
-356 22
-356 -131
-22 131 356
-357 -22
-357 29
22 -29 357
-358 -356
-358 -357
356 357 358
-359 22
-359 -140
-22 140 359
-360 -22
-360 30
22 -30 360
-361 -359
-361 -360
359 360 361
-362 22
-362 -149
-22 149 362
-363 -22
-363 31
22 -31 363
-364 -362
-364 -363
362 363 364
-365 22
-365 -158
-22 158 365
-366 -22
-366 32
22 -32 366
-367 -365
-367 -366
365 366 367
-368 22
-368 -167
-22 167 368
-369 -22
-369 33
22 -33 369
-370 -368
-370 -369
368 369 370
-371 22
-371 -176
-22 176 371
-372 -22
-372 34
22 -34 372
-373 -371
-373 -372
371 372 373
-374 22
-374 -185
-22 185 374
-375 -22
-375 35
22 -35 375
-376 -374
-376 -375
374 375 376
-377 22
-377 -194
-22 194 377
-378 -22
-378 36
22 -36 378
-379 -377
-379 -378
377 378 379
-380 22
-380 -203
-22 203 380
-381 -22
-381 37
22 -37 381
-382 -380
-382 -381
380 381 382
-383 22
-383 -212
-22 212 383
-384 -22
-384 38
22 -38 384
-385 -383
-385 -384
383 384 385
-386 22
-386 -221
-22 221 386
-387 -22
-387 39
22 -39 387
-388 -386
-388 -387
386 387 388
-389 22
-389 -230
-22 230 389
-390 -22
-390 40
22 -40 390
-391 -389
-391 -390
389 390 391
-392 22
-392 -239
-22 239 392
-393 -22
-393 41
22 -41 393
-394 -392
-394 -393
392 393 394
-395 22
-395 -248
-22 248 395
-396 -22
-396 42
22 -42 396
-397 -395
-397 -396
395 396 397
-398 22
-398 -257
-22 257 398
-399 -22
-399 43
22 -43 399
-400 -398
-400 -399
398 399 400
-401 22
-401 -266
-22 266 401
-402 -22
-402 44
22 -44 402
-403 -401
-403 -402
401 402 403
-404 22
-404 -275
-22 275 404
-405 -22
-405 45
22 -45 405
-406 -404
-406 -405
404 405 406
-407 22
-407 -284
-22 284 407
-408 -22
-408 46
22 -46 408
-409 -407
-409 -408
407 408 409
-410 22
-410 -293
-22 293 410
-411 -22
-411 47
22 -47 411
-412 -410
-412 -411
410 411 412
-413 22
-413 -302
-22 302 413
-414 -22
-414 48
22 -48 414
-415 -413
-415 -414
413 414 415
-416 22
-416 -311
-22 311 416
-417 -22
-417 49
22 -49 417
-418 -416
-418 -417
416 417 418
-419 22
-419 -320
-22 320 419
-420 -22
-420 50
22 -50 420
-421 -419
-421 -420
419 420 421
-422 22
-422 -329
-22 329 422
-423 -22
-423 51
22 -51 423
-424 -422
-424 -423
422 423 424
-425 22
-425 -338
-22 338 425
-426 1
-426 79
-1 -79 426
-427 -79
-427 80
79 -80 427
-428 -426
-428 -427
426 427 428
-429 2
-429 79
-2 -79 429
-430 -79
-430 -343
79 343 430
-431 -429
-431 -430
429 430 431
-432 3
-432 79
-3 -79 432
-433 -79
-433 -346
79 346 433
-434 -432
-434 -433
432 433 434
-435 4
-435 79
-4 -79 435
-436 -79
-436 -349
79 349 436
-437 -435
-437 -436
435 436 437
-438 5
-438 79
-5 -79 438
-439 -79
-439 -352
79 352 439
-440 -438
-440 -439
438 439 440
-441 6
-441 79
-6 -79 441
-442 -79
-442 -355
79 355 442
-443 -441
-443 -442
441 442 443
-444 7
-444 79
-7 -79 444
-445 -79
-445 -358
79 358 445
-446 -444
-446 -445
444 445 446
-447 8
-447 79
-8 -79 447
-448 -79
-448 -361
79 361 448
-449 -447
-449 -448
447 448 449
-450 9
-450 79
-9 -79 450
-451 -79
-451 -364
79 364 451
-452 -450
-452 -451
450 451 452
-453 10
-453 79
-10 -79 453
-454 -79
-454 -367
79 367 454
-455 -453
-455 -454
453 454 455
-456 11
-456 79
-11 -79 456
-457 -79
-457 -370
79 370 457
-458 -456
-458 -457
456 457 458
-459 12
-459 79
-12 -79 459
-460 -79
-460 -373
79 373 460
-461 -459
-461 -460
459 460 461
-462 13
-462 79
-13 -79 462
-463 -79
-463 -376
79 376 463
-464 -462
-464 -463
462 463 464
-465 14
-465 79
-14 -79 465
-466 -79
-466 -379
79 379 466
-467 -465
-467 -466
465 466 467
-468 15
-468 79
-15 -79 468
-469 -79
-469 -382
79 382 469
-470 -468
-470 -469
468 469 470
-471 16
-471 79
-16 -79 471
-472 -79
-472 -385
79 385 472
-473 -471
-473 -472
471 472 473
-474 17
-474 79
-17 -79 474
-475 -79
-475 -388
79 388 475
-476 -474
-476 -475
474 475 476
-477 18
-477 79
-18 -79 477
-478 -79
-478 -391
79 391 478
-479 -477
-479 -478
477 478 479
-480 19
-480 79
-19 -79 480
-481 -79
-481 -394
79 394 481
-482 -480
-482 -481
480 481 482
-483 20
-483 79
-20 -79 483
-484 -79
-484 -397
79 397 484
-485 -483
-485 -484
483 484 485
-486 21
-486 79
-21 -79 486
-487 -79
-487 -400
79 400 487
-488 -486
-488 -487
486 487 488
-489 -79
-489 -403
79 403 489
-490 -79
-490 -406
79 406 490
-491 -79
-491 -409
79 409 491
-492 -79
-492 -412
79 412 492
-493 -79
-493 -415
79 415 493
-494 -79
-494 -418
79 418 494
-495 -79
-495 -421
79 421 495
-496 -79
-496 -424
79 424 496
-497 -79
-497 425
79 -425 497
-498 -51
-498 340
51 -340 498
-499 22
-499 -498
-22 498 499
499
